NAME : tt.tsp
COMMENT : subSetCreated
TYPE : TSP
DIMENSION :38
EDGE_WEIGHT_TYPE : EUC_2D
NODE_COORD_SECTION
843 49787 6069
316 49768 6116
34 49816 6088
38 50137 6075
73 50001 6145
185 50036 6131
475 50096 6059
401 50070 5978
737 50015 5889
67 49836 5906
503 49713 6050
908 49702 6043
812 49701 6018
571 49709 5988
158 49727 5986
778 49750 6008
71 49769 5982
68 49803 6000
398 49739 5856
482 49722 5907
192 49751 5957
450 49489 6039
708 49548 6016
498 49616 5990
449 49668 6035
340 49691 6059
447 49694 6069
355 49710 6061
134 49718 6092
308 49700 6116
99 49676 6123
60 49658 6137
148 49471 6365
51 49691 6388
854 49860 6288
133 49744 6170
578 49726 6116
866 49758 6116
